(set-logic QF_S)
(declare-fun var0 () String)
(assert (RegexIn var0 (RegexConcat (RegexStar (RegexPlus (Str2Reg "000"))) (RegexConcat (RegexStar (RegexPlus (Str2Reg "111"))) (RegexConcat (RegexUnion (RegexPlus (Str2Reg "2")) (RegexPlus (Str2Reg "3"))) (RegexConcat (RegexUnion (RegexStar (Str2Reg "4")) (RegexStar (Str2Reg "555"))) (RegexConcat (RegexPlus (RegexStar (Str2Reg "66"))) (RegexConcat (RegexStar (RegexUnion (Str2Reg "777") (Str2Reg "8"))) (RegexConcat (RegexPlus (RegexPlus (Str2Reg "999"))) (RegexConcat (RegexStar (RegexStar (Str2Reg "aa"))) (RegexConcat (RegexUnion (RegexStar (Str2Reg "bb")) (RegexStar (Str2Reg "cc"))) (RegexConcat (RegexUnion (RegexPlus (Str2Reg "d")) (RegexPlus (Str2Reg "ee"))) (RegexConcat (RegexPlus (RegexPlus (Str2Reg "f"))) (RegexConcat (RegexUnion (RegexStar (Str2Reg "ggg")) (RegexStar (Str2Reg "hhh"))) (RegexConcat (RegexPlus (RegexUnion (Str2Reg "i") (Str2Reg "jjj"))) (RegexConcat (RegexStar (RegexUnion (Str2Reg "kk") (Str2Reg "ll"))) (RegexConcat (RegexPlus (RegexStar (Str2Reg "mm"))) (RegexConcat (RegexPlus (RegexPlus (Str2Reg "nn"))) (RegexConcat (RegexStar (RegexStar (Str2Reg "oo"))) (RegexConcat (RegexStar (RegexStar (Str2Reg "ppp"))) (RegexConcat (RegexStar (RegexStar (Str2Reg "qq"))) (RegexConcat (RegexUnion (RegexPlus (Str2Reg "r")) (RegexPlus (Str2Reg "sss"))) (RegexConcat (RegexUnion (RegexStar (Str2Reg "tt")) (RegexStar (Str2Reg "uu"))) (RegexConcat (RegexUnion (RegexUnion (Str2Reg "vvv") (Str2Reg "www")) (RegexUnion (Str2Reg "x") (Str2Reg "y"))) (RegexConcat (RegexPlus (RegexPlus (Str2Reg "zzz"))) (RegexConcat (RegexUnion (RegexStar (Str2Reg "AA")) (RegexStar (Str2Reg "BBB"))) (RegexConcat (RegexStar (RegexPlus (Str2Reg "CCC"))) (RegexConcat (RegexUnion (RegexPlus (Str2Reg "DDD")) (RegexPlus (Str2Reg "EEE"))) (RegexConcat (RegexStar (RegexUnion (Str2Reg "FF") (Str2Reg "G"))) (RegexConcat (RegexStar (RegexPlus (Str2Reg "HH"))) (RegexConcat (RegexUnion (RegexUnion (Str2Reg "III") (Str2Reg "J")) (RegexUnion (Str2Reg "KK") (Str2Reg "LL"))) (RegexConcat (RegexUnion (RegexStar (Str2Reg "MMM")) (RegexStar (Str2Reg "NNN"))) (RegexConcat (RegexUnion (RegexPlus (Str2Reg "OO")) (RegexPlus (Str2Reg "P"))) (RegexConcat (RegexUnion (RegexUnion (Str2Reg "QQ") (Str2Reg "R")) (RegexUnion (Str2Reg "SSS") (Str2Reg "T"))) (RegexConcat (RegexStar (RegexPlus (Str2Reg "UUU"))) (RegexConcat (RegexPlus (RegexPlus (Str2Reg "V"))) (RegexConcat (RegexPlus (RegexUnion (Str2Reg "WW") (Str2Reg "XX"))) (RegexConcat (RegexStar (RegexPlus (Str2Reg "YYY"))) (RegexConcat (RegexStar (RegexStar (Str2Reg "Z"))) (RegexConcat (RegexUnion (RegexStar (Str2Reg "!!!")) (RegexStar (Str2Reg "\"\""))) (RegexConcat (RegexUnion (RegexStar (Str2Reg "###")) (RegexStar (Str2Reg "$"))) (RegexConcat (RegexPlus (RegexUnion (Str2Reg "%%") (Str2Reg "&&"))) (RegexConcat (RegexUnion (RegexPlus (Str2Reg "'")) (RegexPlus (Str2Reg "((("))) (RegexConcat (RegexStar (RegexStar (Str2Reg ")"))) (RegexConcat (RegexStar (RegexUnion (Str2Reg "***") (Str2Reg "++"))) (RegexConcat (RegexUnion (RegexUnion (Str2Reg ",") (Str2Reg "---")) (RegexUnion (Str2Reg "..") (Str2Reg "///"))) (RegexConcat (RegexUnion (RegexStar (Str2Reg ":")) (RegexStar (Str2Reg ";;;"))) (RegexConcat (RegexUnion (RegexStar (Str2Reg "<<<")) (RegexStar (Str2Reg "=="))) (RegexConcat (RegexUnion (RegexPlus (Str2Reg ">>")) (RegexPlus (Str2Reg "?"))) (RegexConcat (RegexPlus (RegexStar (Str2Reg "@@@"))) (RegexConcat (RegexPlus (RegexStar (Str2Reg "[[["))) (RegexConcat (RegexPlus (RegexUnion (Str2Reg "\\\\\\") (Str2Reg "]]]"))) (RegexConcat (RegexUnion (RegexUnion (Str2Reg "^^") (Str2Reg "_")) (RegexUnion (Str2Reg "`") (Str2Reg "{{{"))) (RegexConcat (RegexPlus (RegexPlus (Str2Reg "||"))) (RegexConcat (RegexStar (RegexUnion (Str2Reg "}}}") (Str2Reg "~~~"))) (RegexConcat (RegexUnion (RegexUnion (Str2Reg "00") (Str2Reg "11")) (RegexUnion (Str2Reg "222") (Str2Reg "3"))) (RegexConcat (RegexStar (RegexPlus (Str2Reg "44"))) (RegexConcat (RegexUnion (RegexUnion (Str2Reg "555") (Str2Reg "66")) (RegexUnion (Str2Reg "777") (Str2Reg "88"))) (RegexConcat (RegexUnion (RegexStar (Str2Reg "99")) (RegexStar (Str2Reg "aaa"))) (RegexConcat (RegexUnion (RegexStar (Str2Reg "bbb")) (RegexStar (Str2Reg "ccc"))) (RegexConcat (RegexPlus (RegexUnion (Str2Reg "ddd") (Str2Reg "eee"))) (RegexConcat (RegexUnion (RegexStar (Str2Reg "f")) (RegexStar (Str2Reg "ggg"))) (RegexConcat (RegexUnion (RegexUnion (Str2Reg "h") (Str2Reg "iii")) (RegexUnion (Str2Reg "jjj") (Str2Reg "kkk"))) (RegexConcat (RegexUnion (RegexStar (Str2Reg "ll")) (RegexStar (Str2Reg "mm"))) (RegexConcat (RegexStar (RegexStar (Str2Reg "n"))) (RegexConcat (RegexStar (RegexPlus (Str2Reg "ooo"))) (RegexConcat (RegexUnion (RegexPlus (Str2Reg "ppp")) (RegexPlus (Str2Reg "qq"))) (RegexConcat (RegexStar (RegexUnion (Str2Reg "rr") (Str2Reg "sss"))) (RegexConcat (RegexUnion (RegexUnion (Str2Reg "t") (Str2Reg "uu")) (RegexUnion (Str2Reg "vv") (Str2Reg "ww"))) (RegexConcat (RegexPlus (RegexStar (Str2Reg "x"))) (RegexConcat (RegexStar (RegexPlus (Str2Reg "yy"))) (RegexConcat (RegexStar (RegexPlus (Str2Reg "zzz"))) (RegexConcat (RegexPlus (RegexUnion (Str2Reg "AA") (Str2Reg "BB"))) (RegexConcat (RegexPlus (RegexPlus (Str2Reg "CC"))) (RegexConcat (RegexStar (RegexUnion (Str2Reg "D") (Str2Reg "E"))) (RegexConcat (RegexUnion (RegexUnion (Str2Reg "FFF") (Str2Reg "GGG")) (RegexUnion (Str2Reg "HH") (Str2Reg "I"))) (RegexConcat (RegexStar (RegexStar (Str2Reg "JJJ"))) (RegexPlus (RegexUnion (Str2Reg "KKK") (Str2Reg "LLL"))))))))))))))))))))))))))))))))))))))))))))))))))))))))))))))))))))))))))))))))
(assert (not (RegexIn var0 (RegexConcat (RegexPlus (RegexPlus (Str2Reg "0"))) (RegexConcat (RegexUnion (RegexStar (Str2Reg "111")) (RegexStar (Str2Reg "22"))) (RegexConcat (RegexUnion (RegexPlus (Str2Reg "3")) (RegexPlus (Str2Reg "444"))) (RegexConcat (RegexStar (RegexUnion (Str2Reg "555") (Str2Reg "6"))) (RegexConcat (RegexStar (RegexPlus (Str2Reg "7"))) (RegexConcat (RegexPlus (RegexPlus (Str2Reg "88"))) (RegexConcat (RegexStar (RegexStar (Str2Reg "99"))) (RegexConcat (RegexStar (RegexStar (Str2Reg "aaa"))) (RegexConcat (RegexUnion (RegexPlus (Str2Reg "b")) (RegexPlus (Str2Reg "cc"))) (RegexConcat (RegexPlus (RegexUnion (Str2Reg "d") (Str2Reg "ee"))) (RegexConcat (RegexStar (RegexUnion (Str2Reg "ff") (Str2Reg "gg"))) (RegexConcat (RegexUnion (RegexPlus (Str2Reg "hh")) (RegexPlus (Str2Reg "iii"))) (RegexConcat (RegexUnion (RegexPlus (Str2Reg "jj")) (RegexPlus (Str2Reg "k"))) (RegexConcat (RegexUnion (RegexUnion (Str2Reg "lll") (Str2Reg "m")) (RegexUnion (Str2Reg "nnn") (Str2Reg "o"))) (RegexConcat (RegexUnion (RegexStar (Str2Reg "pp")) (RegexStar (Str2Reg "qq"))) (RegexConcat (RegexPlus (RegexStar (Str2Reg "rr"))) (RegexConcat (RegexStar (RegexStar (Str2Reg "ss"))) (RegexConcat (RegexStar (RegexUnion (Str2Reg "ttt") (Str2Reg "uu"))) (RegexConcat (RegexUnion (RegexUnion (Str2Reg "v") (Str2Reg "ww")) (RegexUnion (Str2Reg "xxx") (Str2Reg "y"))) (RegexConcat (RegexStar (RegexUnion (Str2Reg "zzz") (Str2Reg "A"))) (RegexConcat (RegexUnion (RegexUnion (Str2Reg "BB") (Str2Reg "CC")) (RegexUnion (Str2Reg "DDD") (Str2Reg "EE"))) (RegexConcat (RegexUnion (RegexUnion (Str2Reg "FF") (Str2Reg "G")) (RegexUnion (Str2Reg "H") (Str2Reg "I"))) (RegexConcat (RegexStar (RegexStar (Str2Reg "JJ"))) (RegexConcat (RegexPlus (RegexUnion (Str2Reg "KK") (Str2Reg "LL"))) (RegexConcat (RegexStar (RegexPlus (Str2Reg "M"))) (RegexConcat (RegexStar (RegexUnion (Str2Reg "NNN") (Str2Reg "OOO"))) (RegexConcat (RegexUnion (RegexUnion (Str2Reg "P") (Str2Reg "QQQ")) (RegexUnion (Str2Reg "R") (Str2Reg "SSS"))) (RegexConcat (RegexStar (RegexUnion (Str2Reg "TTT") (Str2Reg "UU"))) (RegexConcat (RegexUnion (RegexStar (Str2Reg "VVV")) (RegexStar (Str2Reg "WW"))) (RegexConcat (RegexUnion (RegexStar (Str2Reg "X")) (RegexStar (Str2Reg "Y"))) (RegexConcat (RegexPlus (RegexUnion (Str2Reg "ZZZ") (Str2Reg "!!"))) (RegexConcat (RegexUnion (RegexUnion (Str2Reg "\"\"") (Str2Reg "#")) (RegexUnion (Str2Reg "$") (Str2Reg "%"))) (RegexConcat (RegexPlus (RegexStar (Str2Reg "&&&"))) (RegexConcat (RegexUnion (RegexStar (Str2Reg "'''")) (RegexStar (Str2Reg "("))) (RegexConcat (RegexPlus (RegexPlus (Str2Reg ")))"))) (RegexConcat (RegexStar (RegexPlus (Str2Reg "**"))) (RegexConcat (RegexUnion (RegexPlus (Str2Reg "+++")) (RegexPlus (Str2Reg ",,"))) (RegexConcat (RegexPlus (RegexStar (Str2Reg "--"))) (RegexConcat (RegexStar (RegexUnion (Str2Reg "...") (Str2Reg "///"))) (RegexConcat (RegexPlus (RegexUnion (Str2Reg ":") (Str2Reg ";;"))) (RegexConcat (RegexStar (RegexPlus (Str2Reg "<<<"))) (RegexConcat (RegexStar (RegexStar (Str2Reg "==="))) (RegexConcat (RegexUnion (RegexStar (Str2Reg ">")) (RegexStar (Str2Reg "?"))) (RegexConcat (RegexStar (RegexStar (Str2Reg "@@"))) (RegexConcat (RegexStar (RegexUnion (Str2Reg "[") (Str2Reg "\\\\\\"))) (RegexConcat (RegexUnion (RegexPlus (Str2Reg "]")) (RegexPlus (Str2Reg "^^"))) (RegexConcat (RegexPlus (RegexUnion (Str2Reg "___") (Str2Reg "```"))) (RegexConcat (RegexStar (RegexStar (Str2Reg "{{{"))) (RegexConcat (RegexUnion (RegexPlus (Str2Reg "|")) (RegexPlus (Str2Reg "}"))) (RegexConcat (RegexStar (RegexPlus (Str2Reg "~~~"))) (RegexConcat (RegexPlus (RegexPlus (Str2Reg "00"))) (RegexConcat (RegexPlus (RegexUnion (Str2Reg "11") (Str2Reg "222"))) (RegexConcat (RegexStar (RegexStar (Str2Reg "3"))) (RegexConcat (RegexStar (RegexPlus (Str2Reg "4"))) (RegexConcat (RegexUnion (RegexPlus (Str2Reg "555")) (RegexPlus (Str2Reg "66"))) (RegexConcat (RegexStar (RegexUnion (Str2Reg "77") (Str2Reg "888"))) (RegexConcat (RegexPlus (RegexPlus (Str2Reg "9"))) (RegexConcat (RegexUnion (RegexPlus (Str2Reg "aaa")) (RegexPlus (Str2Reg "bbb"))) (RegexConcat (RegexUnion (RegexStar (Str2Reg "ccc")) (RegexStar (Str2Reg "ddd"))) (RegexConcat (RegexUnion (RegexUnion (Str2Reg "eee") (Str2Reg "ff")) (RegexUnion (Str2Reg "gg") (Str2Reg "hh"))) (RegexConcat (RegexPlus (RegexStar (Str2Reg "iii"))) (RegexConcat (RegexStar (RegexPlus (Str2Reg "jj"))) (RegexConcat (RegexUnion (RegexUnion (Str2Reg "k") (Str2Reg "l")) (RegexUnion (Str2Reg "mm") (Str2Reg "nnn"))) (RegexConcat (RegexUnion (RegexPlus (Str2Reg "oo")) (RegexPlus (Str2Reg "p"))) (RegexConcat (RegexStar (RegexStar (Str2Reg "q"))) (RegexConcat (RegexPlus (RegexPlus (Str2Reg "rrr"))) (RegexConcat (RegexUnion (RegexStar (Str2Reg "sss")) (RegexStar (Str2Reg "t"))) (RegexConcat (RegexUnion (RegexUnion (Str2Reg "uu") (Str2Reg "vv")) (RegexUnion (Str2Reg "w") (Str2Reg "xxx"))) (RegexConcat (RegexStar (RegexPlus (Str2Reg "y"))) (RegexConcat (RegexStar (RegexPlus (Str2Reg "zz"))) (RegexConcat (RegexUnion (RegexPlus (Str2Reg "AA")) (RegexPlus (Str2Reg "BBB"))) (RegexConcat (RegexStar (RegexStar (Str2Reg "C"))) (RegexConcat (RegexPlus (RegexUnion (Str2Reg "DDD") (Str2Reg "EE"))) (RegexConcat (RegexStar (RegexStar (Str2Reg "F"))) (RegexConcat (RegexUnion (RegexStar (Str2Reg "GG")) (RegexStar (Str2Reg "HHH"))) (RegexPlus (RegexPlus (Str2Reg "III")))))))))))))))))))))))))))))))))))))))))))))))))))))))))))))))))))))))))))))))))
(check-sat)